c File: instances/12_0.60_3.col
c
c Description: Random graph of size 12 vertices and P(0.6) of edges between any two vertices.
p col 12 66
e 1 3
e 1 4
e 1 7
e 1 8
e 1 9
e 1 10
e 1 11
e 2 5
e 2 6
e 2 7
e 2 8
e 2 9
e 2 11
e 3 6
e 3 7
e 3 11
e 3 12
e 4 6
e 4 8
e 4 12
e 5 7
e 5 10
e 5 11
e 6 8
e 6 11
e 7 8
e 7 9
e 7 11
e 7 12
e 8 10
e 8 12
e 9 11
e 10 11
e 10 12
e 11 12